Reading model...
...model read.
creating competitive generators file...
...competitive generators recorded.
Loading data...
.. real-time data read.
Compiling instance...
0.0
0.0
0.0
0.0
...instance created.
Creating Offer Mitigation (model will solve as dispatch if TRUE)...
...storage offer mitigation file created
Converting model to MPEC...
...converted
NOTE: initial MIP solve with only storage competitive to get feasible solution
Solving...

Welcome to IBM(R) ILOG(R) CPLEX(R) Interactive Optimizer 12.9.0.0
  with Simplex, Mixed Integer & Barrier Optimizers
5725-A06 5725-A29 5724-Y48 5724-Y49 5724-Y54 5724-Y55 5655-Y21
Copyright IBM Corp. 1988, 2019.  All Rights Reserved.

Type 'help' for a list of available commands.
Type 'help' followed by a command name for more
information on commands.

CPLEX> Logfile 'cplex.log' closed.
Logfile 'C:\Users\llavin\Desktop\test826\logs\tmpgu6oi0ys.cplex.log' open.
CPLEX> New value for parallel optimization mode: -1
CPLEX> New value for mixed integer optimality gap tolerance: 0.05
CPLEX> New value for emphasis for MIP optimization: 1
CPLEX> New value for integrality tolerance: 1e-12
CPLEX> New value for deterministic time limit in ticks: 250000
CPLEX> Problem 'C:\Users\llavin\Desktop\test826\logs\tmpv79c050e.pyomo.lp' read.
Read time = 0.53 sec. (28.54 ticks)
CPLEX> Problem name         : C:\Users\llavin\Desktop\test826\logs\tmpv79c050e.pyomo.lp
Objective sense      : Maximize
Variables            :  107783  [Nneg: 1,  Box: 44058,  Free: 8928,
                                 Binary: 54796]
Objective nonzeros   :   19009
Linear constraints   :  246901  [Less: 82864,  Greater: 118424,  Equal: 45613]
  Nonzeros           :  619805
  RHS nonzeros       :  136512

Variables            : Min LB: -5000.000        Max UB: 1000000.       
Objective nonzeros   : Min   : 0.02500000       Max   : 208.3333       
Linear constraints   :
  Nonzeros           : Min   : 0.02500000       Max   : 1000000.       
  RHS nonzeros       : Min   : 0.02500000       Max   : 1000000.       
CPLEX> CPXPARAM_Parallel                                -1
CPXPARAM_Emphasis_MIP                            1
CPXPARAM_DetTimeLimit                            250000
CPXPARAM_MIP_Tolerances_MIPGap                   0.050000000000000003
CPXPARAM_MIP_Tolerances_Integrality              9.9999999999999998e-13
Tried aggregator 3 times.
MIP Presolve eliminated 173739 rows and 34727 columns.
MIP Presolve added 7723 rows and 0 columns.
MIP Presolve modified 52954 coefficients.
Aggregator did 26019 substitutions.
Reduced MIP has 54866 rows, 46653 columns, and 157325 nonzeros.
Reduced MIP has 18467 binaries, 0 generals, 0 SOSs, and 0 indicators.
Presolve time = 0.64 sec. (351.16 ticks)
Probing fixed 842 vars, tightened 17095 bounds.
Probing time = 0.45 sec. (18.84 ticks)
Tried aggregator 2 times.
MIP Presolve eliminated 1878 rows and 1691 columns.
MIP Presolve modified 7154 coefficients.
Aggregator did 98 substitutions.
Reduced MIP has 52890 rows, 44864 columns, and 151569 nonzeros.
Reduced MIP has 17623 binaries, 0 generals, 0 SOSs, and 0 indicators.
Presolve time = 0.30 sec. (264.34 ticks)
Probing fixed 0 vars, tightened 336 bounds.
Probing time = 0.61 sec. (19.52 ticks)
Clique table members: 87259.
MIP emphasis: integer feasibility.
MIP search method: dynamic search.
Parallel mode: opportunistic, using up to 32 threads.
Root relaxation solution time = 1.66 sec. (2803.69 ticks)

        Nodes                                         Cuts/
   Node  Left     Objective  IInf  Best Integer    Best Bound    ItCnt     Gap

      0     0        0.0000   413                      0.0000    11975         
*     0+    0                            0.0000        0.0000             0.00%
      0     0        cutoff              0.0000        0.0000    11975    0.00%
Elapsed time = 5.91 sec. (5323.71 ticks, tree = 0.01 MB, solutions = 1)

Root node processing (before b&c):
  Real time             =    5.95 sec. (5327.71 ticks)
Parallel b&c, 32 threads:
  Real time             =    0.00 sec. (0.00 ticks)
  Sync time (average)   =    0.00 sec.
  Wait time (average)   =    0.00 sec.
                          ------------
Total (root+branch&cut) =    5.95 sec. (5327.71 ticks)

Solution pool: 1 solution saved.

MIP - Integer optimal solution:  Objective =  4.9495838539e-09
Solution time =    5.97 sec.  Iterations = 11975  Nodes = 0
Deterministic time = 5328.02 ticks  (892.61 ticks/sec)

CPLEX> Incumbent solution written to file 'C:\Users\llavin\Desktop\test826\logs\tmpy3c5r4we.cplex.sol'.
CPLEX> NOTE: no warmstart specified for MIP iteration, default behavior is true
NOTE: resolving with all competitive generators using storage-only solution to warmstart
Solving...

Welcome to IBM(R) ILOG(R) CPLEX(R) Interactive Optimizer 12.9.0.0
  with Simplex, Mixed Integer & Barrier Optimizers
5725-A06 5725-A29 5724-Y48 5724-Y49 5724-Y54 5724-Y55 5655-Y21
Copyright IBM Corp. 1988, 2019.  All Rights Reserved.

Type 'help' for a list of available commands.
Type 'help' followed by a command name for more
information on commands.

CPLEX> Logfile 'cplex.log' closed.
Logfile 'C:\Users\llavin\Desktop\test826\logs\tmpt4o2341d.cplex.log' open.
CPLEX> New value for parallel optimization mode: -1
CPLEX> New value for mixed integer optimality gap tolerance: 0.05
CPLEX> New value for emphasis for MIP optimization: 1
CPLEX> New value for integrality tolerance: 1e-12
CPLEX> New value for deterministic time limit in ticks: 250000
CPLEX> Problem 'C:\Users\llavin\Desktop\test826\logs\tmp0gblupga.pyomo.lp' read.
Read time = 0.55 sec. (28.59 ticks)
CPLEX> MIP start file 'C:\Users\llavin\Desktop\test826\logs\tmp6c7e0435.cplex.mst' read.
CPLEX> Problem name         : C:\Users\llavin\Desktop\test826\logs\tmp0gblupga.pyomo.lp
Objective sense      : Maximize
Variables            :  109223  [Nneg: 1,  Box: 45498,  Free: 8928,
                                 Binary: 54796]
Objective nonzeros   :   20401
Linear constraints   :  246901  [Less: 82864,  Greater: 118424,  Equal: 45613]
  Nonzeros           :  619805
  RHS nonzeros       :  136512

Variables            : Min LB: -5000.000        Max UB: 1000000.       
Objective nonzeros   : Min   : 0.02500000       Max   : 208.3333       
Linear constraints   :
  Nonzeros           : Min   : 0.02500000       Max   : 1000000.       
  RHS nonzeros       : Min   : 0.02500000       Max   : 1000000.       
CPLEX> CPXPARAM_Parallel                                -1
CPXPARAM_Emphasis_MIP                            1
CPXPARAM_DetTimeLimit                            250000
CPXPARAM_MIP_Tolerances_MIPGap                   0.050000000000000003
CPXPARAM_MIP_Tolerances_Integrality              9.9999999999999998e-13
Warning:  No solution found from 1 MIP starts.
Retaining values of one MIP start for possible repair.
Tried aggregator 3 times.
MIP Presolve eliminated 173739 rows and 36167 columns.
MIP Presolve added 7723 rows and 0 columns.
MIP Presolve modified 52954 coefficients.
Aggregator did 26019 substitutions.
Reduced MIP has 54866 rows, 46653 columns, and 157325 nonzeros.
Reduced MIP has 18467 binaries, 0 generals, 0 SOSs, and 0 indicators.
Presolve time = 0.64 sec. (351.90 ticks)
Probing fixed 842 vars, tightened 17095 bounds.
Probing time = 0.44 sec. (18.84 ticks)
Tried aggregator 2 times.
MIP Presolve eliminated 1878 rows and 1691 columns.
MIP Presolve modified 7154 coefficients.
Aggregator did 98 substitutions.
Reduced MIP has 52890 rows, 44864 columns, and 151569 nonzeros.
Reduced MIP has 17623 binaries, 0 generals, 0 SOSs, and 0 indicators.
Presolve time = 0.31 sec. (264.36 ticks)
Probing fixed 0 vars, tightened 336 bounds.
Probing time = 0.61 sec. (19.52 ticks)
Clique table members: 87259.
MIP emphasis: integer feasibility.
MIP search method: dynamic search.
Parallel mode: opportunistic, using up to 32 threads.
Root relaxation solution time = 1.67 sec. (2868.12 ticks)

        Nodes                                         Cuts/
   Node  Left     Objective  IInf  Best Integer    Best Bound    ItCnt     Gap

      0     0     4365.5361   489                   4365.5361    12518         
      0     0     4364.9670    61                   Cuts: 145    12611         
      0     0     4364.8582    66                    Cuts: 38    12630         
      0     0     4364.8018    67                     Cuts: 7    12638         
Repair heuristic found nothing.
      0    10     4309.8522    54                     Cuts: 4    12669         
Elapsed time = 11.50 sec. (5863.45 ticks, tree = 0.02 MB, solutions = 0)
    264    51     4270.8990    56                   4359.1041    12831         
    547   171     4214.5432    55                   4359.1041    13434         
    810   390     4245.0461    58                   4359.1041    14704         
   1061   868     4213.0543    55                   4359.1041    24525         
   1296   890     4211.4083    53                   4359.1041    25255         
   1467  1348     2492.4481    64                   4359.1041    38263         
   1703  1619     4312.3853    56                   4359.1041    44010         
   1960  1414     3125.4550    55                   4359.1041    39629         
   2266  1786     4251.6749    48                   4359.1041    46512         
   3328  2861     4179.6101    49                   4359.1041    66647         
Elapsed time = 31.39 sec. (8969.88 ticks, tree = 38.61 MB, solutions = 0)
   4284  4034     1969.8081    69                   4359.1041    96668         
   5192  4884     3132.0461    51                   4359.1041   116590         
   5709  5678     4294.4396    19                   4344.6639   152068         
   6714   162     4293.5824    23                   4341.4110   154749         
   7909   926     3793.9841    31                   4341.4110   174927         
   9224  1975     4177.2946    12                   4341.4110   195868         
  10485  3321     4215.8891    17                   4341.4110   225119         
  11664  4900     2192.7341    12                   4341.4110   260812         
* 12267  5416      integral     0     3956.6057     4341.4110   270536    9.73%
* 12602  4351      integral     0     4002.8682     4341.4110   247103    8.46%
  12880  4555     4210.8129     8     4002.8682     4341.4110   251728    8.46%
  14201  1517     4261.0446    21     4033.6809     4341.4110   279344    7.63%
Elapsed time = 102.86 sec. (26014.98 ticks, tree = 42.02 MB, solutions = 5)
  15213  1588     4185.0697     5     4033.6809     4339.4187   288389    7.58%
  15372  2000     4306.8450    26     4033.6809     4339.4187   291798    7.58%
  15833  3096     4119.4958    15     4033.6809     4339.4187   296363    7.58%
  17351  3499     4083.3124    15     4033.6809     4328.1260   298044    7.30%
  19048  5568     4278.8581    24     4033.6809     4328.1260   304991    7.30%
  21068  7129     4042.2012     4     4033.6809     4328.1260   309263    7.30%
  23320  6271     4165.9753     9     4033.6809     4328.1260   306947    7.30%
  25463 10783     4166.0689     5     4033.6809     4328.1260   320703    7.30%
  27620 10849     4265.2406    22     4033.6809     4328.1260   320842    7.30%
  29748 11402     4089.0136     9     4033.6809     4328.1260   322582    7.30%
Elapsed time = 165.73 sec. (35562.70 ticks, tree = 234.27 MB, solutions = 5)
  31773 12846     4042.2012     4     4033.6809     4328.1260   327491    7.30%
  33634 14239     4042.2012     4     4033.6809     4328.1260   331988    7.30%
  35501 18206     4068.3812     3     4033.6809     4328.1260   344748    7.30%
  37543 18248     4042.2012     4     4033.6809     4328.1260   344885    7.30%
  39730 21156     4095.3441    10     4033.6809     4328.1260   353118    7.30%
  41982 23659     4075.3195    12     4033.6809     4328.1260   361933    7.30%
  44090 26069     4125.3986     7     4033.6809     4328.1260   369731    7.30%
  46274 25007     4034.2796     6     4033.6809     4323.8941   366359    7.19%
  48397 30003     4042.2012    10     4033.6809     4323.8941   385032    7.19%
  50343 32488     4086.4184    11     4033.6809     4318.8493   395559    7.07%
Elapsed time = 268.51 sec. (45102.46 ticks, tree = 616.25 MB, solutions = 5)
  52240 34415     4119.8064     8     4033.6809     4318.8493   403778    7.07%
  54058 32345     4039.4687     4     4033.6809     4318.8493   394743    7.07%
  55863 35636     4034.2796     7     4033.6809     4318.8493   409402    7.07%
  57808 36197     4045.4901     8     4033.6809     4318.8493   412160    7.07%
  59888 40354     4131.5000    16     4033.6809     4318.8493   429644    7.07%
  62018 40649     4111.8786     7     4033.6809     4318.8493   430927    7.07%
  64086 39189     4051.3321     9     4033.6809     4318.8493   424835    7.07%
  66235 43769     4037.5686     4     4033.6809     4318.8493   443403    7.07%
  68291 42657     4171.6935     9     4033.6809     4318.8493   438807    7.07%
  70309 43721     4161.0917    10     4033.6809     4318.8493   443001    7.07%
Elapsed time = 296.14 sec. (54641.38 ticks, tree = 827.20 MB, solutions = 5)
  72232 50383     4078.1513    11     4033.6809     4318.8493   473091    7.07%
  74011 49318        cutoff           4033.6809     4318.8493   468300    7.07%
  75334 50516     4052.9211    14     4033.6809     4318.8493   473665    7.07%
  76065 52565     4129.7644    16     4033.6809     4318.8493   483473    7.07%
  76292 51367     4146.7748    14     4033.6809     4318.8493   477988    7.07%

Cover cuts applied:  13
Flow cuts applied:  32
Gomory fractional cuts applied:  8

Root node processing (before b&c):
  Real time             =    7.30 sec. (5787.87 ticks)
Parallel b&c, 32 threads:
  Real time             =  289.91 sec. (54186.66 ticks)
  Sync time (average)   =    9.05 sec.
  Wait time (average)   =    0.41 sec.
                          ------------
Total (root+branch&cut) =  297.20 sec. (59974.52 ticks)

Solution pool: 5 solutions saved.

MIP - Integer optimal, tolerance (0.05/1e-06):  Objective =  4.0336808641e+03
Current MIP best bound =  4.2351715930e+03 (gap = 201.491, 5.00%)
Solution time =  297.25 sec.  Iterations = 491995  Nodes = 76351 (54641)
Deterministic time = 59974.84 ticks  (201.77 ticks/sec)

CPLEX> Incumbent solution written to file 'C:\Users\llavin\Desktop\test826\logs\tmpsf97n2lk.cplex.sol'.
CPLEX> Exporting results... 
